
Gurobi 12.0.2 (linux64, C++) logging started Thu Jun 19 08:00:19 2025

Set parameter LogFile to value "log/instances/scenario3/not_correlated_sc3/300/kpfs_5.txt.log"

Gurobi 12.0.2 (linux64, C++) logging started Thu Jun 19 08:01:42 2025

Set parameter LogFile to value "log/instances/scenario3/not_correlated_sc3/300/kpfs_5.txt.log"

Gurobi 12.0.2 (linux64, C++) logging started Thu Jun 19 08:02:53 2025

Set parameter LogFile to value "log/instances/scenario3/not_correlated_sc3/300/kpfs_5.txt.log"

Gurobi 12.0.2 (linux64, C++) logging started Thu Jun 19 08:03:57 2025

Set parameter LogFile to value "log/instances/scenario3/not_correlated_sc3/300/kpfs_5.txt.log"

Gurobi 12.0.2 (linux64, C++) logging started Thu Jun 19 12:37:57 2025

Set parameter WLSAccessID
Set parameter WLSSecret
Set parameter LicenseID to value 2679381
Set parameter LogFile to value "log/instances/scenario3/not_correlated_sc3/300/kpfs_5.txt.log"
Academic license 2679381 - for non-commercial use only - registered to be___@poli.ufrj.br
Set parameter TimeLimit to value 1800
Set parameter Threads to value 1
Gurobi Optimizer version 12.0.2 build v12.0.2rc0 (linux64 - "Ubuntu 24.04.1 LTS")

CPU model: 13th Gen Intel(R) Core(TM) i7-1355U, instruction set [SSE2|AVX|AVX2]
Thread count: 6 physical cores, 12 logical processors, using up to 1 threads

Non-default parameters:
TimeLimit  1800
Threads  1

Academic license 2679381 - for non-commercial use only - registered to be___@poli.ufrj.br
Optimize a model with 1502 rows, 1800 columns and 9372 nonzeros
Model fingerprint: 0x90da63a0
Variable types: 0 continuous, 1800 integer (300 binary)
Coefficient statistics:
  Matrix range     [1e+00, 3e+01]
  Objective range  [1e+00, 3e+01]
  Bounds range     [1e+00, 5e+00]
  RHS range        [1e+00, 5e+02]
Found heuristic solution: objective 451.0000000
Presolve removed 7 rows and 252 columns
Presolve time: 0.06s
Presolved: 1495 rows, 1548 columns, 8852 nonzeros
Variable types: 0 continuous, 1548 integer (487 binary)

Root relaxation: objective 1.112931e+03, 583 iterations, 0.09 seconds (0.03 work units)

    Nodes    |    Current Node    |     Objective Bounds      |     Work
 Expl Unexpl |  Obj  Depth IntInf | Incumbent    BestBd   Gap | It/Node Time

     0     0 1112.93114    0  157  451.00000 1112.93114   147%     -    0s
H    0     0                     801.0000000 1112.93114  38.9%     -    0s
H    0     0                     849.0000000 1112.93114  31.1%     -    0s
H    0     0                     889.0000000 1112.93114  25.2%     -    0s
H    0     0                     900.0000000 1112.93114  23.7%     -    0s
H    0     0                     992.0000000 1112.93114  12.2%     -    0s
H    0     0                    1004.0000000 1112.93114  10.8%     -    0s
H    0     0                    1024.0000000 1112.93114  8.68%     -    0s
H    0     0                    1026.0000000 1112.93114  8.47%     -    0s
H    0     0                    1036.0000000 1112.93114  7.43%     -    0s
H    0     0                    1040.0000000 1112.93114  7.01%     -    0s
H    0     0                    1067.0000000 1112.93114  4.30%     -    0s
     0     0 1107.60432    0  153 1067.00000 1107.60432  3.81%     -    0s
     0     0 1105.94355    0  155 1067.00000 1105.94355  3.65%     -    3s
     0     0 1105.87748    0  157 1067.00000 1105.87748  3.64%     -    3s
     0     0 1103.38642    0  151 1067.00000 1103.38642  3.41%     -    3s
     0     0 1103.33840    0  153 1067.00000 1103.33840  3.41%     -    3s
     0     0 1103.33786    0  154 1067.00000 1103.33786  3.41%     -    3s
     0     0 1102.04426    0  163 1067.00000 1102.04426  3.28%     -    3s
     0     0 1101.97114    0  163 1067.00000 1101.97114  3.28%     -    3s
     0     0 1101.16193    0  159 1067.00000 1101.16193  3.20%     -    3s
     0     0 1101.12572    0  156 1067.00000 1101.12572  3.20%     -    3s
     0     0 1101.12463    0  157 1067.00000 1101.12463  3.20%     -    3s
     0     0 1100.58502    0  160 1067.00000 1100.58502  3.15%     -    3s
     0     0 1100.46739    0  162 1067.00000 1100.46739  3.14%     -    3s
     0     0 1100.25719    0  162 1067.00000 1100.25719  3.12%     -    4s
     0     0 1100.16538    0  164 1067.00000 1100.16538  3.11%     -    4s
     0     0 1100.09590    0  161 1067.00000 1100.09590  3.10%     -    4s
     0     0 1100.09442    0  163 1067.00000 1100.09442  3.10%     -    4s
     0     0 1100.09397    0  163 1067.00000 1100.09397  3.10%     -    4s
     0     0 1100.05145    0  165 1067.00000 1100.05145  3.10%     -    4s
     0     0 1100.05145    0  165 1067.00000 1100.05145  3.10%     -    4s
     0     0 1100.05145    0  165 1067.00000 1100.05145  3.10%     -    4s
H    0     0                    1072.0000000 1100.04289  2.62%     -    4s
H    0     0                    1080.0000000 1100.04289  1.86%     -    5s
     0     2 1100.04289    0  165 1080.00000 1100.04289  1.86%     -    5s
H   26    21                    1081.0000000 1092.60450  1.07%  79.6    5s
H   26    14                    1086.0000000 1092.60450  0.61%  79.6    5s

Cutting planes:
  Cover: 1
  MIR: 8
  Zero half: 39

Explored 57 nodes (4297 simplex iterations) in 5.79 seconds (0.83 work units)
Thread count was 1 (of 12 available processors)

Solution count 10: 1086 1081 1080 ... 1004

Optimal solution found (tolerance 1.00e-04)
Best objective 1.086000000000e+03, best bound 1.086000000000e+03, gap 0.0000%
